7611
[0, 1, 2, 3, 5, 6, 8, 9, 10, 33, 34, 12, 11, 13, 14, 16, 17, 19, 20, 21, 22, 45, 44, 43, 42, 18, 41, 40, 39, 15, 38, 37, 36, 35, 59, 60, 61, 62, 63, 64, 65, 66, 67, 68, 91, 114, 137, 160, 159, 136, 158, 157, 135, 134, 133, 132, 131, 130, 107, 108, 109, 110, 111, 113, 90, 112, 89, 88, 87, 86, 85, 84, 83, 82, 81, 80, 78, 79, 58, 57, 56, 55, 54, 53, 75, 76, 77, 99, 100, 101, 102, 103, 125, 124, 146, 145, 147, 126, 150, 127, 104, 105, 106, 128, 129, 151, 152, 153, 154, 155, 156, 181, 182, 183, 206, 205, 180, 203, 204, 228, 229, 252, 251, 275, 298, 296, 295, 317, 294, 293, 292, 313, 314, 315, 316, 338, 337, 339, 340, 341, 342, 318, 319, 320, 297, 321, 343, 344, 367, 366, 389, 365, 364, 363, 387, 410, 411, 388, 412, 390, 413, 436, 459, 435, 434, 433, 432, 431, 430, 407, 408, 386, 409, 385, 362, 361, 360, 384, 382, 383, 406, 405, 428, 429, 454, 455, 456, 478, 477, 479, 480, 457, 458, 481, 482, 505, 527, 528, 551, 574, 550, 573, 572, 571, 570, 569, 568, 566, 565, 564, 563, 562, 538, 561, 560, 558, 557, 554, 552, 553, 555, 532, 531, 530, 529, 506, 507, 508, 509, 510, 534, 533, 556, 559, 535, 537, 539, 541, 542, 544, 567, 546, 547, 545, 543, 519, 518, 517, 540, 516, 494, 493, 469, 468, 491, 492, 515, 513, 514, 536, 512, 511, 488, 487, 486, 485, 484, 483, 460, 461, 462, 463, 464, 466, 465, 489, 490, 467, 445, 444, 443, 442, 441, 440, 439, 438, 437, 414, 368, 369, 345, 322, 323, 346, 347, 348, 349, 326, 325, 324, 299, 300, 301, 302, 303, 304, 327, 328, 332, 356, 355, 354, 353, 352, 351, 350, 370, 393, 392, 391, 415, 416, 417, 418, 419, 420, 421, 422, 423, 446, 447, 470, 471, 472, 495, 520, 521, 522, 523, 524, 548, 549, 526, 525, 503, 504, 502, 501, 500, 499, 498, 497, 496, 473, 474, 475, 476, 453, 452, 451, 450, 449, 448, 426, 427, 425, 424, 401, 403, 404, 381, 380, 402, 400, 399, 398, 397, 396, 395, 394, 371, 372, 373, 374, 375, 376, 377, 378, 379, 357, 358, 359, 336, 335, 312, 334, 333, 311, 310, 309, 308, 331, 330, 307, 329, 306, 305, 280, 281, 279, 278, 277, 276, 254, 253, 230, 255, 256, 257, 258, 259, 282, 283, 284, 260, 261, 262, 285, 286, 287, 288, 290, 289, 265, 266, 267, 268, 291, 269, 270, 271, 272, 273, 274, 250, 249, 227, 226, 225, 248, 247, 246, 245, 222, 224, 223, 221, 244, 243, 241, 264, 263, 239, 238, 215, 214, 237, 236, 213, 235, 212, 234, 233, 231, 232, 207, 208, 184, 185, 209, 210, 211, 186, 187, 188, 189, 190, 191, 192, 193, 216, 217, 240, 242, 219, 218, 194, 195, 196, 220, 197, 198, 199, 200, 201, 202, 178, 179, 177, 176, 175, 174, 173, 172, 149, 148, 171, 170, 169, 168, 167, 166, 165, 164, 163, 162, 161, 139, 138, 140, 141, 142, 143, 144, 121, 123, 122, 120, 119, 98, 97, 74, 96, 95, 93, 94, 118, 117, 116, 115, 92, 70, 69, 46, 71, 72, 73, 50, 49, 27, 28, 51, 52, 31, 32, 30, 29, 7, 4, 26, 25, 48, 47, 23, 24]
